c Result of efficient AIG-to-CNF conversion using package CNF
p cnf 502 1804
2 3 4 -376 0
2 3 4 -5 0
-2 -3 0
-2 -4 0
-2 5 376 0
-3 470 471 0
3 -470 0
3 -471 0
-4 472 473 0
4 -472 0
4 -473 0
-5 -6 347 0
-5 119 -256 0
-5 119 347 0
-5 -6 -256 0
5 6 -119 0
5 256 -347 0
6 466 -7 95 0
6 -466 95 -107 0
-6 -95 0
-6 -466 107 0
-6 466 7 0
7 467 -8 0
7 -467 -79 86 0
-7 -467 79 0
-7 467 8 0
-7 -467 -86 0
8 468 -9 0
8 -468 -65 0
-8 -468 65 0
-8 468 9 0
9 469 -10 0
9 -469 -50 0
-9 -469 50 0
-9 469 10 0
10 -497 11 -37 0
10 497 11 -22 0
-10 -11 0
-10 -497 37 0
-10 497 22 0
-11 12 14 16 0
11 -12 0
11 -14 0
11 -16 0
-12 482 483 3 13 0
12 -482 0
12 -13 0
12 -3 0
12 -483 0
-13 475 476 0
13 -475 0
13 -476 0
-14 472 473 474 15 0
14 -15 0
14 -474 0
14 -472 0
14 -473 0
-15 478 479 480 0
15 -478 0
15 -480 0
15 -479 0
-16 477 481 17 18 0
16 -477 0
16 -18 0
16 -17 0
16 -481 0
-17 494 495 496 0
17 -494 0
17 -496 0
17 -495 0
-18 487 19 20 21 0
18 -487 0
18 -21 0
18 -20 0
18 -19 0
-19 484 485 486 0
19 -484 0
19 -486 0
19 -485 0
-20 491 492 493 0
20 -491 0
20 -493 0
20 -492 0
-21 488 489 490 0
21 -488 0
21 -490 0
21 -489 0
-22 498 23 0
-22 -498 30 0
22 -498 -30 0
22 498 -23 0
-23 499 24 0
-23 -499 27 0
23 -499 -27 0
23 499 -24 0
-24 500 26 0
-24 -500 25 0
24 -500 -25 0
24 500 -26 0
25 -443 -501 0
25 -442 501 0
-25 442 501 0
-25 443 -501 0
26 -441 -501 0
26 -440 501 0
-26 440 501 0
-26 441 -501 0
27 500 -28 0
27 -500 -29 0
-27 -500 29 0
-27 500 28 0
28 -445 -501 0
28 -444 501 0
-28 444 501 0
-28 445 -501 0
29 -447 -501 0
29 -446 501 0
-29 446 501 0
-29 447 -501 0
30 499 -31 0
30 -499 -34 0
-30 -499 34 0
-30 499 31 0
31 500 -32 0
31 -500 -33 0
-31 -500 33 0
-31 500 32 0
32 -449 -501 0
32 -448 501 0
-32 448 501 0
-32 449 -501 0
33 -451 -501 0
33 -450 501 0
-33 450 501 0
-33 451 -501 0
34 500 -35 0
34 -500 -36 0
-34 -500 36 0
-34 500 35 0
35 -453 -501 0
35 -452 501 0
-35 452 501 0
-35 453 -501 0
36 -455 -501 0
36 -454 501 0
-36 454 501 0
-36 455 -501 0
37 498 -38 0
37 -498 -45 0
-37 -498 45 0
-37 498 38 0
38 499 -39 0
38 -499 -42 0
-38 -499 42 0
-38 499 39 0
39 500 -40 0
39 -500 -41 0
-39 -500 41 0
-39 500 40 0
40 -457 -501 0
40 -456 501 0
-40 456 501 0
-40 457 -501 0
41 -459 -501 0
41 -458 501 0
-41 458 501 0
-41 459 -501 0
42 500 -43 0
42 -500 -44 0
-42 -500 44 0
-42 500 43 0
43 -461 -501 0
43 -460 501 0
-43 460 501 0
-43 461 -501 0
44 -463 -501 0
44 -462 501 0
-44 462 501 0
-44 463 -501 0
45 499 -46 0
45 -499 -49 0
-45 -499 49 0
-45 499 46 0
46 500 -47 0
46 -500 -48 0
-46 -500 48 0
-46 500 47 0
47 -465 -501 0
47 -464 501 0
-47 464 501 0
-47 465 -501 0
48 -467 -501 0
48 -466 501 0
-48 466 501 0
-48 467 -501 0
49 -468 500 501 0
49 -469 500 -501 0
-49 -500 0
-49 469 -501 0
-49 468 501 0
50 -497 11 -58 0
50 497 11 -51 0
-50 -11 0
-50 -497 58 0
-50 497 51 0
-51 498 52 0
-51 -498 55 0
51 -498 -55 0
51 498 -52 0
-52 499 54 0
-52 -499 53 0
52 -499 -53 0
52 499 -54 0
53 500 -29 0
53 -500 -32 0
-53 -500 32 0
-53 500 29 0
54 500 -25 0
54 -500 -28 0
-54 -500 28 0
-54 500 25 0
55 499 -56 0
55 -499 -57 0
-55 -499 57 0
-55 499 56 0
56 500 -33 0
56 -500 -35 0
-56 -500 35 0
-56 500 33 0
57 500 -36 0
57 -500 -40 0
-57 -500 40 0
-57 500 36 0
58 498 -59 0
58 -498 -62 0
-58 -498 62 0
-58 498 59 0
59 499 -60 0
59 -499 -61 0
-59 -499 61 0
-59 499 60 0
60 500 -41 0
60 -500 -43 0
-60 -500 43 0
-60 500 41 0
61 500 -44 0
61 -500 -47 0
-61 -500 47 0
-61 500 44 0
62 499 -63 0
-62 -499 0
-62 63 0
63 500 -48 0
63 -500 -64 0
-63 -500 64 0
-63 500 48 0
64 -469 -501 0
64 -468 501 0
-64 468 501 0
-64 469 -501 0
65 469 -66 0
65 -469 -73 0
-65 -469 73 0
-65 469 66 0
66 -497 11 -70 0
66 497 11 -67 0
-66 -11 0
-66 -497 70 0
-66 497 67 0
-67 498 68 0
-67 -498 69 0
67 -498 -69 0
67 498 -68 0
-68 -499 31 0
-68 499 27 0
68 499 -27 0
68 -499 -31 0
69 499 -34 0
69 -499 -39 0
-69 -499 39 0
-69 499 34 0
70 498 -71 0
70 -498 -72 0
-70 -498 72 0
-70 498 71 0
71 499 -42 0
71 -499 -46 0
-71 -499 46 0
-71 499 42 0
72 499 -49 0
-72 -499 0
-72 49 0
73 -497 11 -77 0
73 497 11 -74 0
-73 -11 0
-73 -497 77 0
-73 497 74 0
-74 498 76 0
-74 -498 75 0
74 -498 -75 0
74 498 -76 0
75 499 -57 0
75 -499 -60 0
-75 -499 60 0
-75 499 57 0
76 499 -53 0
76 -499 -56 0
-76 -499 56 0
-76 499 53 0
77 498 -78 0
-77 -498 0
-77 78 0
78 499 -61 0
78 -499 -63 0
-78 -499 63 0
-78 499 61 0
-79 468 -469 83 0
-79 468 469 80 0
79 -468 0
79 -469 -83 0
79 469 -80 0
80 -497 11 -82 0
80 497 11 -81 0
-80 -11 0
-80 -497 82 0
-80 497 81 0
-81 -498 38 0
-81 498 30 0
81 498 -30 0
81 -498 -38 0
82 498 -45 0
-82 -498 0
-82 45 0
83 -497 11 -85 0
83 497 11 -84 0
-83 -11 0
-83 -497 85 0
-83 497 84 0
-84 -498 59 0
-84 498 55 0
84 498 -55 0
84 -498 -59 0
85 498 -62 0
-85 -498 0
-85 62 0
86 -468 -469 90 0
86 -468 469 87 0
-86 468 0
-86 -469 -90 0
-86 469 -87 0
87 -497 11 -89 0
87 497 11 -88 0
-87 -11 0
-87 -497 89 0
-87 497 88 0
-88 -498 71 0
-88 498 69 0
88 498 -69 0
88 -498 -71 0
89 498 -72 0
-89 -498 0
-89 72 0
90 91 -94 0
-90 -91 0
-90 94 0
-91 12 18 92 0
91 -12 0
91 -18 0
91 -92 0
-92 497 14 93 17 0
92 -497 0
92 -17 0
92 -93 0
92 -14 0
-93 477 481 0
93 -477 0
93 -481 0
94 498 -75 0
94 -498 -78 0
-94 -498 78 0
-94 498 75 0
-95 445 96 103 105 0
95 -445 0
95 -105 0
95 -103 0
95 -96 0
-96 97 100 101 102 0
96 -102 0
96 -97 0
96 -101 0
96 -100 0
-97 457 458 98 0
97 -98 0
97 -458 0
97 -457 0
-98 465 99 0
98 -465 0
98 -99 0
-99 461 462 463 464 0
99 -464 0
99 -463 0
99 -461 0
99 -462 0
-100 459 460 0
100 -459 0
100 -460 0
-101 454 455 456 0
101 -454 0
101 -456 0
101 -455 0
-102 451 452 453 0
102 -451 0
102 -453 0
102 -452 0
-103 442 443 444 104 0
103 -104 0
103 -444 0
103 -442 0
103 -443 0
-104 439 440 441 0
104 -439 0
104 -441 0
104 -440 0
-105 446 447 106 0
105 -106 0
105 -447 0
105 -446 0
-106 448 449 450 0
106 -448 0
106 -450 0
106 -449 0
107 -467 -114 0
107 467 -108 111 0
-107 467 108 0
-107 -467 114 0
-107 467 -111 0
-108 468 -469 110 0
-108 468 469 109 0
108 -468 0
108 -469 -110 0
108 469 -109 0
109 -37 91 0
-109 37 0
-109 -91 0
110 -58 91 0
-110 58 0
-110 -91 0
111 -468 -469 113 0
111 -468 469 112 0
-111 468 0
-111 -469 -113 0
-111 469 -112 0
112 -70 91 0
-112 70 0
-112 -91 0
113 -77 91 0
-113 77 0
-113 -91 0
114 468 -115 0
114 -468 469 -118 0
-114 -468 -469 0
-114 468 115 0
-114 -468 118 0
115 469 -116 0
115 -469 -117 0
-115 -469 117 0
-115 469 116 0
116 -82 91 0
-116 82 0
-116 -91 0
117 -85 91 0
-117 85 0
-117 -91 0
118 -89 91 0
-118 89 0
-118 -91 0
119 497 -120 231 0
119 -497 231 -234 0
-119 -231 0
-119 -497 234 0
-119 497 120 0
120 498 -121 0
120 -498 -193 215 0
-120 -498 193 0
-120 498 121 0
-120 -498 -215 0
121 499 -122 0
121 -499 -175 0
-121 -499 175 0
-121 499 122 0
122 500 -123 0
122 -500 -149 0
-122 -500 149 0
-122 500 123 0
123 501 -124 0
123 -501 -137 0
-123 -501 137 0
-123 501 124 0
124 -466 95 -132 0
124 466 95 -125 0
-124 -95 0
-124 -466 132 0
-124 466 125 0
-125 467 126 0
-125 -467 129 0
125 -467 -129 0
125 467 -126 0
-126 468 127 0
-126 -468 128 0
126 -468 -128 0
126 468 -127 0
-127 440 469 0
-127 442 -469 0
127 -442 -469 0
127 -440 469 0
128 -446 -469 0
128 -444 469 0
-128 444 469 0
-128 446 -469 0
129 468 -130 0
129 -468 -131 0
-129 -468 131 0
-129 468 130 0
130 -450 -469 0
130 -448 469 0
-130 448 469 0
-130 450 -469 0
131 -454 -469 0
131 -452 469 0
-131 452 469 0
-131 454 -469 0
132 467 -133 0
132 -467 -136 0
-132 -467 136 0
-132 467 133 0
133 468 -134 0
133 -468 -135 0
-133 -468 135 0
-133 468 134 0
134 -458 -469 0
134 -456 469 0
-134 456 469 0
-134 458 -469 0
135 -462 -469 0
135 -460 469 0
-135 460 469 0
-135 462 -469 0
136 -464 469 0
136 -468 469 0
136 -466 468 -469 0
-136 466 -469 0
-136 -468 -469 0
-136 464 468 469 0
137 -466 95 -144 0
137 466 95 -138 0
-137 -95 0
-137 -466 144 0
-137 466 138 0
138 -467 -141 0
138 467 -139 140 0
-138 467 139 0
-138 -467 141 0
-138 467 -140 0
-139 443 468 -469 0
-139 441 468 469 0
139 -468 0
139 -441 469 0
139 -443 -469 0
140 447 -468 -469 0
140 445 -468 469 0
-140 468 0
-140 -445 469 0
-140 -447 -469 0
141 468 -142 0
141 -468 -143 0
-141 -468 143 0
-141 468 142 0
142 -451 -469 0
142 -449 469 0
-142 449 469 0
-142 451 -469 0
143 -455 -469 0
143 -453 469 0
-143 453 469 0
-143 455 -469 0
144 467 -145 0
144 -467 468 -148 0
-144 -467 -468 0
-144 467 145 0
-144 -467 148 0
145 468 -146 0
145 -468 -147 0
-145 -468 147 0
-145 468 146 0
146 -459 -469 0
146 -457 469 0
-146 457 469 0
-146 459 -469 0
147 -463 -469 0
147 -461 469 0
-147 461 469 0
-147 463 -469 0
148 -467 -469 0
148 -465 469 0
-148 465 469 0
-148 467 -469 0
149 501 -150 0
149 -501 -163 0
-149 -501 163 0
-149 501 150 0
150 -466 95 -158 0
150 466 95 -151 0
-150 -95 0
-150 -466 158 0
-150 466 151 0
-151 467 152 0
-151 -467 155 0
151 -467 -155 0
151 467 -152 0
-152 468 154 0
-152 -468 153 0
152 -468 -153 0
152 468 -154 0
153 -448 -469 0
153 -446 469 0
-153 446 469 0
-153 448 -469 0
154 -444 -469 0
154 -442 469 0
-154 442 469 0
-154 444 -469 0
155 468 -156 0
155 -468 -157 0
-155 -468 157 0
-155 468 156 0
156 -452 -469 0
156 -450 469 0
-156 450 469 0
-156 452 -469 0
157 -456 -469 0
157 -454 469 0
-157 454 469 0
-157 456 -469 0
158 467 -159 0
158 -467 -162 0
-158 -467 162 0
-158 467 159 0
159 468 -160 0
159 -468 -161 0
-159 -468 161 0
-159 468 160 0
160 -460 -469 0
160 -458 469 0
-160 458 469 0
-160 460 -469 0
161 -464 -469 0
161 -462 469 0
-161 462 469 0
-161 464 -469 0
162 -466 468 469 0
-162 466 0
-162 -469 0
-162 -468 0
163 -466 95 -171 0
163 466 95 -164 0
-163 -95 0
-163 -466 171 0
-163 466 164 0
-164 467 165 0
-164 -467 168 0
164 -467 -168 0
164 467 -165 0
-165 468 167 0
-165 -468 166 0
165 -468 -166 0
165 468 -167 0
166 -449 -469 0
166 -447 469 0
-166 447 469 0
-166 449 -469 0
167 -445 -469 0
167 -443 469 0
-167 443 469 0
-167 445 -469 0
168 468 -169 0
168 -468 -170 0
-168 -468 170 0
-168 468 169 0
169 -453 -469 0
169 -451 469 0
-169 451 469 0
-169 453 -469 0
170 -457 -469 0
170 -455 469 0
-170 455 469 0
-170 457 -469 0
171 -467 468 0
171 467 -172 0
-171 -467 -468 0
-171 467 172 0
172 468 -173 0
172 -468 -174 0
-172 -468 174 0
-172 468 173 0
173 -461 -469 0
173 -459 469 0
-173 459 469 0
-173 461 -469 0
174 -465 -469 0
174 -463 469 0
-174 463 469 0
-174 465 -469 0
175 500 -176 0
175 -500 -185 0
-175 -500 185 0
-175 500 176 0
176 501 -177 0
-176 -501 0
-176 177 0
-177 501 178 0
177 -501 0
177 -178 0
178 467 95 -180 0
178 95 -179 -180 0
-178 180 0
-178 -95 0
-178 -467 179 0
179 468 -131 0
179 -468 -134 0
-179 -468 134 0
-179 468 131 0
180 466 -183 0
180 467 -181 -183 0
-180 183 0
-180 -466 181 0
-180 -466 -467 0
181 468 -135 0
181 -468 -182 0
-181 -468 182 0
-181 468 135 0
182 -466 -469 0
182 -464 469 0
-182 464 469 0
-182 466 -469 0
-183 468 128 184 0
-183 -468 130 184 0
183 -184 0
183 468 -128 0
183 -468 -130 0
-184 466 467 0
184 -466 0
184 -467 0
185 -501 192 0
185 -186 192 0
-185 -192 0
-185 501 186 0
186 -466 95 -190 0
186 466 95 -187 0
-186 -95 0
-186 -466 190 0
-186 466 187 0
-187 467 189 0
-187 -467 188 0
187 -467 -188 0
187 467 -189 0
188 468 -157 0
188 -468 -160 0
-188 -468 160 0
-188 468 157 0
189 468 -153 0
189 -468 -156 0
-189 -468 156 0
-189 468 153 0
190 467 -191 0
-190 -467 0
-190 191 0
191 -466 -468 0
191 468 -161 0
191 -468 -469 0
-191 468 161 0
-191 466 -468 469 0
192 -501 178 0
-192 501 0
-192 -178 0
-193 499 -500 198 0
-193 499 500 194 0
193 -499 0
193 -500 -198 0
193 500 -194 0
194 501 -195 0
-194 -501 0
-194 195 0
195 467 95 -196 0
195 95 -133 -196 0
-195 196 0
-195 -95 0
-195 -467 133 0
196 466 -467 0
196 -466 -197 0
196 466 -129 0
-196 -466 197 0
-196 466 467 129 0
197 467 -136 0
-197 -467 0
-197 136 0
198 501 -199 0
198 -501 -209 0
-198 -501 209 0
-198 501 199 0
199 466 -200 0
199 467 -162 -200 0
-199 200 0
-199 -466 162 0
-199 -466 -467 0
200 467 -201 202 0
200 -159 -201 202 0
-200 -202 0
-200 201 0
-200 -467 159 0
201 445 -155 0
201 445 -184 0
-201 -445 0
-201 155 184 0
-202 203 106 204 208 0
202 -208 0
202 -203 0
202 -204 0
202 -106 0
-203 457 458 0
203 -457 0
203 -458 0
-204 205 206 0
204 -205 0
204 -206 0
-205 453 98 0
205 -453 0
205 -98 0
-206 446 447 207 103 0
206 -446 0
206 -103 0
206 -207 0
206 -447 0
-207 451 452 0
207 -451 0
207 -452 0
-208 459 460 101 0
208 -101 0
208 -460 0
208 -459 0
209 467 -210 0
209 466 -172 -210 0
-209 210 0
-209 -467 172 0
-209 -466 -467 0
210 445 208 -211 213 0
-210 -445 0
-210 -213 0
-210 211 0
-210 -208 0
211 -168 206 212 0
211 -184 206 212 0
-211 -212 0
-211 -206 0
-211 168 184 0
-212 97 106 0
212 -97 0
212 -106 0
-213 453 466 0
-213 453 -214 0
213 -453 0
213 -466 214 0
214 -467 468 0
214 468 -469 0
-214 -468 0
-214 467 469 0
215 -499 -500 227 0
215 -499 500 216 0
-215 499 0
-215 -500 -227 0
-215 500 -216 0
216 -501 -217 0
-216 501 0
-216 217 0
217 467 -218 219 0
217 -467 219 -226 0
-217 -219 0
-217 -467 226 0
-217 467 218 0
218 468 -143 0
218 -468 -146 0
-218 -468 146 0
-218 468 143 0
-219 101 102 104 220 0
219 -220 0
219 -101 0
219 -104 0
219 -102 0
-220 221 224 0
220 -221 0
220 -224 0
-221 99 106 222 223 0
221 -223 0
221 -99 0
221 -222 0
221 -106 0
-222 457 458 459 460 0
222 -460 0
222 -459 0
222 -457 0
222 -458 0
-223 465 466 0
223 -465 0
223 -466 0
-224 445 446 447 225 0
224 -225 0
224 -447 0
224 -445 0
224 -446 0
-225 442 443 444 0
225 -442 0
225 -444 0
225 -443 0
226 468 -147 0
226 -468 -148 0
-226 -468 148 0
-226 468 147 0
227 501 -217 0
227 -501 -228 0
-227 -501 228 0
-227 501 217 0
228 219 -229 0
-228 -219 0
-228 229 0
229 -467 -468 0
229 467 -230 0
229 -467 -174 0
-229 467 230 0
-229 -467 468 174 0
230 468 -170 0
230 -468 -173 0
-230 -468 173 0
-230 468 170 0
-231 474 232 16 233 0
231 -474 0
231 -233 0
231 -16 0
231 -232 0
-232 482 483 0
232 -482 0
232 -483 0
-233 475 476 15 0
233 -15 0
233 -476 0
233 -475 0
234 498 -235 0
234 -498 499 -243 0
-234 -498 -499 0
-234 498 235 0
-234 -498 243 0
235 499 -236 0
235 -499 -500 -242 0
-235 -499 242 0
-235 499 236 0
-235 -499 500 0
236 500 -237 0
236 -500 -240 0
-236 -500 240 0
-236 500 237 0
237 501 -238 0
237 -501 -239 0
-237 -501 239 0
-237 501 238 0
238 -132 219 0
-238 132 0
-238 -219 0
239 -144 219 0
-239 144 0
-239 -219 0
240 -501 -241 0
-240 501 0
-240 241 0
241 -171 219 0
-241 171 0
-241 -219 0
242 -190 219 0
-242 190 0
-242 -219 0
243 -244 251 0
-243 244 0
-243 -251 0
-244 500 245 0
244 -500 0
244 -245 0
245 501 -246 0
-245 -501 0
-245 246 0
246 101 -197 221 247 0
-246 -247 0
-246 -101 0
-246 -221 0
-246 197 0
-247 439 440 444 248 0
247 -248 0
247 -444 0
247 -439 0
247 -440 0
-248 441 102 249 250 0
248 -441 0
248 -250 0
248 -249 0
248 -102 0
-249 442 443 0
249 -442 0
249 -443 0
-250 445 446 447 0
250 -445 0
250 -447 0
250 -446 0
251 -500 252 0
-251 500 0
-251 -252 0
252 -501 -253 0
-252 501 0
-252 253 0
253 222 224 254 -255 0
-253 255 0
-253 -222 0
-253 -254 0
-253 -224 0
-254 101 106 205 0
254 -101 0
254 -106 0
254 -205 0
255 207 104 -214 184 0
-255 -184 0
-255 -207 0
-255 214 0
-255 -104 0
256 466 95 -300 0
256 -466 95 -257 0
-256 -95 0
-256 -466 257 0
-256 466 300 0
257 -467 -291 0
257 467 -258 282 0
-257 467 258 0
-257 -467 291 0
-257 467 -282 0
-258 468 -469 274 0
-258 468 469 259 0
258 -468 0
258 -469 -274 0
258 469 -259 0
259 91 -260 0
-259 -91 0
-259 260 0
260 498 -261 0
260 -498 -268 0
-260 -498 268 0
-260 498 261 0
261 499 -262 0
261 -499 -265 0
-261 -499 265 0
-261 499 262 0
262 500 -263 0
262 -500 -264 0
-262 -500 264 0
-262 500 263 0
263 -456 -501 0
263 -455 501 0
-263 455 501 0
-263 456 -501 0
264 -458 -501 0
264 -457 501 0
-264 457 501 0
-264 458 -501 0
265 500 -266 0
265 -500 -267 0
-265 -500 267 0
-265 500 266 0
266 -460 -501 0
266 -459 501 0
-266 459 501 0
-266 460 -501 0
267 -462 -501 0
267 -461 501 0
-267 461 501 0
-267 462 -501 0
268 499 -269 0
268 -499 -272 0
-268 -499 272 0
-268 499 269 0
269 500 -270 0
269 -500 -271 0
-269 -500 271 0
-269 500 270 0
270 -464 -501 0
270 -463 501 0
-270 463 501 0
-270 464 -501 0
271 -466 -501 0
271 -465 501 0
-271 465 501 0
-271 466 -501 0
272 500 -273 0
272 -469 -500 501 0
-272 500 273 0
-272 -500 -501 0
-272 469 -500 0
273 -468 -501 0
273 -467 501 0
-273 467 501 0
-273 468 -501 0
274 91 -275 0
-274 -91 0
-274 275 0
275 498 -276 0
275 -498 -279 0
-275 -498 279 0
-275 498 276 0
276 499 -277 0
276 -499 -278 0
-276 -499 278 0
-276 499 277 0
277 500 -264 0
277 -500 -266 0
-277 -500 266 0
-277 500 264 0
278 500 -267 0
278 -500 -270 0
-278 -500 270 0
-278 500 267 0
279 499 -280 0
279 -499 -281 0
-279 -499 281 0
-279 499 280 0
280 500 -271 0
280 -500 -273 0
-280 -500 273 0
-280 500 271 0
281 -469 500 501 0
-281 469 0
-281 -501 0
-281 -500 0
282 -468 -469 287 0
282 -468 469 283 0
-282 468 0
-282 -469 -287 0
-282 469 -283 0
283 91 -284 0
-283 -91 0
-283 284 0
284 498 -285 0
284 -498 -286 0
-284 -498 286 0
-284 498 285 0
285 499 -265 0
285 -499 -269 0
-285 -499 269 0
-285 499 265 0
286 499 -272 0
-286 -499 0
-286 272 0
287 91 -288 0
-287 -91 0
-287 288 0
288 498 -289 0
288 -498 -290 0
-288 -498 290 0
-288 498 289 0
289 499 -278 0
289 -499 -280 0
-289 -499 280 0
-289 499 278 0
290 -469 499 500 501 0
-290 -501 0
-290 -500 0
-290 469 0
-290 -499 0
291 468 -292 0
291 -468 -297 0
-291 -468 297 0
-291 468 292 0
292 469 -293 0
292 -469 -295 0
-292 -469 295 0
-292 469 293 0
293 91 -294 0
-293 -91 0
-293 294 0
294 498 -268 0
-294 -498 0
-294 268 0
295 91 -296 0
-295 -91 0
-295 296 0
296 498 -279 0
-296 -498 0
-296 279 0
297 -469 91 -299 0
297 469 91 -298 0
-297 -91 0
-297 -469 299 0
-297 469 298 0
298 498 -286 0
-298 -498 0
-298 286 0
299 498 -290 0
-299 -498 0
-299 290 0
300 -467 -301 0
300 467 324 -335 0
-300 467 335 0
-300 -467 301 0
-300 467 -324 0
301 468 -302 0
301 -468 -317 0
-301 -468 317 0
-301 468 302 0
302 469 -303 0
302 -469 -312 0
-302 -469 312 0
-302 469 303 0
303 497 11 -304 0
303 -497 11 -294 0
-303 -11 0
-303 497 304 0
-303 -497 294 0
-304 498 305 0
-304 -498 261 0
304 -498 -261 0
304 498 -305 0
305 499 -306 0
305 -499 -309 0
-305 -499 309 0
-305 499 306 0
306 500 -307 0
306 -500 -308 0
-306 -500 308 0
-306 500 307 0
307 -448 -501 0
307 -447 501 0
-307 447 501 0
-307 448 -501 0
308 -450 -501 0
308 -449 501 0
-308 449 501 0
-308 450 -501 0
309 500 -310 0
309 -500 -311 0
-309 -500 311 0
-309 500 310 0
310 -452 -501 0
310 -451 501 0
-310 451 501 0
-310 452 -501 0
311 -454 -501 0
311 -453 501 0
-311 453 501 0
-311 454 -501 0
312 497 11 -313 0
312 -497 11 -296 0
-312 -11 0
-312 497 313 0
-312 -497 296 0
-313 498 314 0
-313 -498 276 0
313 -498 -276 0
313 498 -314 0
314 499 -315 0
314 -499 -316 0
-314 -499 316 0
-314 499 315 0
315 500 -308 0
315 -500 -310 0
-315 -500 310 0
-315 500 308 0
316 -500 -263 0
316 500 -311 0
-316 500 311 0
-316 -500 263 0
317 469 -318 0
317 -469 -321 0
-317 -469 321 0
-317 469 318 0
318 497 11 -319 0
318 -497 11 -298 0
-318 -11 0
-318 497 319 0
-318 -497 298 0
-319 498 320 0
-319 -498 285 0
319 -498 -285 0
319 498 -320 0
320 -499 -262 0
320 499 -309 0
-320 499 309 0
-320 -499 262 0
321 497 11 -322 0
321 -497 11 -299 0
-321 -11 0
-321 497 322 0
-321 -497 299 0
-322 498 323 0
-322 -498 289 0
322 -498 -289 0
322 498 -323 0
323 -499 -277 0
323 499 -316 0
-323 499 316 0
-323 -499 277 0
324 -468 -469 331 0
324 -468 469 325 0
-324 468 0
-324 -469 -331 0
-324 469 -325 0
325 497 11 -326 0
325 -497 11 -284 0
-325 -11 0
-325 497 326 0
-325 -497 284 0
-326 -498 320 0
-326 498 327 0
326 -498 -320 0
326 498 -327 0
-327 499 328 0
-327 -499 306 0
327 -499 -306 0
327 499 -328 0
328 500 -329 0
328 -500 -330 0
-328 -500 330 0
-328 500 329 0
329 -444 -501 0
329 -443 501 0
-329 443 501 0
-329 444 -501 0
330 -446 -501 0
330 -445 501 0
-330 445 501 0
-330 446 -501 0
331 497 11 -332 0
331 -497 11 -288 0
-331 -11 0
-331 497 332 0
-331 -497 288 0
-332 -498 323 0
-332 498 333 0
332 -498 -323 0
332 498 -333 0
-333 499 334 0
-333 -499 315 0
333 -499 -315 0
333 499 -334 0
334 -500 -307 0
334 500 -330 0
-334 500 330 0
-334 -500 307 0
-335 468 469 341 0
-335 468 336 341 0
335 -468 0
335 -341 0
335 -469 -336 0
336 497 11 -337 0
336 -497 11 -275 0
-336 -11 0
-336 497 337 0
-336 -497 275 0
-337 -498 314 0
-337 498 338 0
337 -498 -314 0
337 498 -338 0
-338 -499 334 0
-338 499 339 0
338 -499 -334 0
338 499 -339 0
-339 500 340 0
-339 -500 329 0
339 -500 -329 0
339 500 -340 0
340 -442 -501 0
340 -441 501 0
-340 441 501 0
-340 442 -501 0
341 497 342 -343 0
341 -497 -260 342 0
-341 -342 0
-341 -497 260 0
-341 497 343 0
-342 469 11 0
342 -469 0
342 -11 0
343 -498 -305 0
343 498 -344 0
-343 498 344 0
-343 -498 305 0
344 -499 -328 0
344 499 -345 0
-344 499 345 0
-344 -499 328 0
345 -500 -340 0
345 500 -346 0
-345 500 346 0
-345 -500 340 0
346 -440 -501 0
346 -439 501 0
-346 439 501 0
-346 440 -501 0
347 -497 231 -366 0
347 497 231 -348 0
-347 -231 0
-347 -497 366 0
-347 497 348 0
348 498 -349 0
348 -498 -361 364 0
-348 -498 361 0
-348 498 349 0
-348 -498 -364 0
349 499 -350 0
349 -499 -358 0
-349 -499 358 0
-349 499 350 0
350 500 -351 0
350 -500 -357 0
-350 -500 357 0
-350 500 351 0
351 -501 -124 0
351 501 -352 0
-351 501 352 0
-351 -501 124 0
352 466 95 -353 0
352 -466 95 -229 0
-352 -95 0
-352 466 353 0
-352 -466 229 0
-353 467 354 0
-353 -467 356 0
353 -467 -356 0
353 467 -354 0
-354 -468 167 0
-354 468 355 0
354 -468 -167 0
354 468 -355 0
-355 439 469 0
-355 441 -469 0
355 -441 -469 0
355 -439 469 0
356 468 -166 0
356 -468 -169 0
-356 -468 169 0
-356 468 166 0
357 501 -137 0
357 -501 -150 0
-357 -501 150 0
-357 501 137 0
358 500 -359 0
358 -500 -360 0
-358 -500 360 0
-358 500 359 0
359 -501 192 0
359 -163 192 0
-359 -192 0
-359 501 163 0
360 -501 -186 0
-360 501 0
-360 186 0
-361 499 -500 363 0
-361 499 500 362 0
361 -499 0
361 -500 -363 0
361 500 -362 0
362 -177 -195 0
362 501 -177 0
-362 177 0
-362 -501 195 0
363 -501 -199 0
-363 501 0
-363 199 0
364 -499 500 365 0
364 -499 -500 217 0
-364 499 0
-364 -500 -217 0
-364 500 -365 0
365 501 -209 0
-365 -501 0
-365 209 0
366 498 -367 0
366 -498 -373 0
-366 -498 373 0
-366 498 367 0
367 499 -368 0
367 -499 -371 0
-367 -499 371 0
-367 499 368 0
368 500 -369 0
368 -500 -370 0
-368 -500 370 0
-368 500 369 0
369 501 -228 0
369 -501 -238 0
-369 -501 238 0
-369 501 228 0
370 501 -239 0
-370 -501 0
-370 239 0
371 500 -372 0
371 -500 -501 -242 0
-371 -500 501 0
-371 500 372 0
-371 -500 242 0
372 501 -241 0
-372 -501 0
-372 241 0
373 -499 500 -375 0
373 499 500 -374 0
-373 -500 0
-373 -499 375 0
-373 499 374 0
374 501 -242 0
374 -501 -246 0
-374 -501 246 0
-374 501 242 0
375 501 -253 0
-375 -501 0
-375 253 0
-376 -377 420 0
-376 389 -402 0
-376 389 420 0
-376 -377 -402 0
376 377 -389 0
376 402 -420 0
377 -466 95 -384 0
377 466 95 -378 0
-377 -95 0
-377 -466 384 0
-377 466 378 0
378 467 -379 0
378 -467 -382 383 0
-378 -467 382 0
-378 467 379 0
-378 -467 -383 0
379 468 -380 0
379 -468 -381 0
-379 -468 381 0
-379 468 380 0
380 -469 -325 0
380 469 -336 0
-380 469 336 0
-380 -469 325 0
381 -469 -303 0
381 469 -331 0
-381 469 331 0
-381 -469 303 0
-382 468 -469 318 0
-382 468 469 312 0
382 -468 0
382 -469 -318 0
382 469 -312 0
383 -468 469 321 0
383 -468 -469 259 0
-383 468 0
-383 -469 -259 0
-383 469 -321 0
384 -467 -387 0
384 467 -385 386 0
-384 467 385 0
-384 -467 387 0
-384 467 -386 0
-385 468 -469 283 0
-385 468 469 274 0
385 -468 0
385 -469 -283 0
385 469 -274 0
386 -468 -469 293 0
386 -468 469 287 0
-386 468 0
-386 -469 -293 0
-386 469 -287 0
387 468 -469 -388 0
387 468 469 -295 0
-387 -468 0
-387 -469 388 0
-387 469 295 0
388 91 -298 0
-388 -91 0
-388 298 0
389 -497 231 -397 0
389 497 231 -390 0
-389 -231 0
-389 -497 397 0
-389 497 390 0
390 -498 -393 0
390 498 -391 392 0
-390 498 391 0
-390 -498 393 0
-390 498 -392 0
-391 499 -500 359 0
-391 499 500 357 0
391 -499 0
391 -500 -359 0
391 500 -357 0
392 -499 -500 362 0
392 -499 500 360 0
-392 499 0
-392 -500 -362 0
-392 500 -360 0
393 -499 -396 0
393 499 -394 395 0
-393 499 394 0
-393 -499 396 0
-393 499 -395 0
-394 500 363 0
394 -500 0
394 -363 0
395 -500 365 0
-395 500 0
-395 -365 0
396 500 -217 0
396 -500 -369 0
-396 -500 369 0
-396 500 217 0
397 498 -398 0
397 -498 499 -401 0
-397 -498 -499 0
-397 498 398 0
-397 -498 401 0
398 499 -399 0
398 -499 -400 0
-398 -499 400 0
-398 499 399 0
399 500 -370 0
399 -500 501 -241 0
-399 -500 -501 0
-399 500 370 0
-399 -500 241 0
400 -500 -374 0
400 500 -501 -242 0
-400 -500 374 0
-400 500 242 0
-400 500 501 0
401 -500 -375 0
-401 500 0
-401 375 0
402 466 95 -409 0
402 -466 95 -403 0
-402 -95 0
-402 -466 403 0
-402 466 409 0
403 467 -404 0
403 -467 -407 408 0
-403 -467 407 0
-403 467 404 0
-403 -467 -408 0
404 468 -405 0
404 -468 -406 0
-404 -468 406 0
-404 468 405 0
405 469 -90 0
405 -469 -109 0
-405 -469 109 0
-405 469 90 0
406 469 -110 0
406 -469 -112 0
-406 -469 112 0
-406 469 110 0
-407 468 -469 116 0
-407 468 469 113 0
407 -468 0
407 -469 -116 0
407 469 -113 0
408 -468 -469 118 0
408 -468 469 117 0
-408 468 0
-408 -469 -118 0
-408 469 -117 0
409 -467 -410 0
409 467 413 -414 0
-409 467 414 0
-409 -467 410 0
-409 467 -413 0
410 468 -411 0
410 -468 -412 0
-410 -468 412 0
-410 468 411 0
411 469 -73 0
411 -469 -80 0
-411 -469 80 0
-411 469 73 0
412 469 -83 0
412 -469 -87 0
-412 -469 87 0
-412 469 83 0
413 -468 -469 66 0
413 -468 469 50 0
-413 468 0
-413 -469 -66 0
-413 469 -50 0
-414 468 469 415 0
-414 468 10 415 0
414 -468 0
414 -415 0
414 -469 -10 0
415 497 342 -416 0
415 -497 -94 342 0
-415 -342 0
-415 -497 94 0
-415 497 416 0
416 -498 -76 0
416 498 -417 0
-416 498 417 0
-416 -498 76 0
417 -499 -54 0
417 499 -418 0
-417 499 418 0
-417 -499 54 0
418 -500 -26 0
418 500 -419 0
-418 500 419 0
-418 -500 26 0
419 -439 -501 0
419 -438 501 0
-419 438 501 0
-419 439 -501 0
420 -497 231 -433 0
420 497 231 -421 0
-420 -231 0
-420 -497 433 0
-420 497 421 0
421 498 -422 0
421 -498 -431 432 0
-421 -498 431 0
-421 498 422 0
-421 -498 -432 0
422 499 -423 0
422 -499 -430 0
-422 -499 430 0
-422 499 423 0
423 -500 -123 0
423 500 -424 0
-423 500 424 0
-423 -500 123 0
424 -501 -352 0
424 501 95 -425 0
-424 -501 352 0
-424 501 425 0
-424 501 -95 0
-425 466 426 0
-425 -466 429 0
425 -466 -429 0
425 466 -426 0
-426 -467 189 0
-426 467 427 0
426 -467 -189 0
426 467 -427 0
-427 468 428 0
-427 -468 154 0
427 -468 -154 0
427 468 -428 0
428 -440 -469 0
428 -438 469 0
-428 438 469 0
-428 440 -469 0
429 467 -188 0
429 -467 -191 0
-429 -467 191 0
-429 467 188 0
430 500 -149 0
430 -500 -176 0
-430 -500 176 0
-430 500 149 0
-431 499 -500 194 0
-431 499 500 185 0
431 -499 0
431 -500 -194 0
431 500 -185 0
432 -499 -500 216 0
432 -499 500 198 0
-432 499 0
-432 -500 -216 0
-432 500 -198 0
433 498 -434 0
433 -498 -436 0
-433 -498 436 0
-433 498 434 0
434 499 -435 0
434 -499 500 -240 0
-434 -499 -500 0
-434 499 435 0
-434 -499 240 0
435 500 -227 0
435 -500 -237 0
-435 -500 237 0
-435 500 227 0
436 499 -437 0
436 -499 500 -252 0
-436 -499 -500 0
-436 499 437 0
-436 -499 252 0
437 500 -242 0
437 -500 -245 0
-437 -500 245 0
-437 500 242 0
-502 0
2 0

